12462
4052
1167
1738
4167
1170
3185
1772
4261
3939
2957
2409
2170
5427
2992
5915
1233
1468
2212
2367
633
4021
10470
1841
2358
1138
626
2743
4037
9618
3591
8327
1542
1903
3677
552
5000
1565
4132
715
7378
3153
7122
1874
1155
4106
2416
2420
2249
1219
725
3099
900
363
2212
2095
743
1741
1224
719
4129
2027
1619
1211
1452
1058
1628
1405
7160
5067
1070
289
17048
14281
1840
1686
1089
1260
2481
927
2095
1332
1369
3418
3451
1839
1606
682
1358
1173
4849
11369
2165
5961
2900
3262
1837
1100
5772
1004
